c b=9,c=1551
p cnf 29 1139
2 3 4 6 7 8 9 -18 0
1 3 4 5 7 8 9 -19 0
1 2 4 5 6 8 9 -20 0
1 2 3 5 6 7 9 -21 0
1 2 4 6 8 9 -27 0
2 3 5 7 9 -28 0
2 3 4 6 7 8 -9 18 0
1 2 3 4 6 -9 19 0
2 3 4 6 7 -9 20 0
1 3 4 6 7 8 -9 21 0
1 3 4 6 8 -9 27 0
1 3 4 6 8 -9 28 0
1 2 3 5 6 7 8 -17 0
1 2 3 4 6 7 8 -22 0
4 5 7 8 -26 0
1 3 4 6 8 -29 0
1 2 3 5 -8 9 18 0
1 2 3 4 9 -22 0
2 3 5 7 -8 9 27 0
9 -29 0
1 2 3 5 -8 -9 -18 0
1 2 3 4 -8 -9 22 0
1 4 5 7 -8 -9 -27 0
-8 -9 29 0
1 2 3 5 6 7 -8 17 0
1 2 3 5 6 -8 19 0
2 3 5 6 7 -8 20 0
1 3 5 6 7 -8 -21 0
1 4 5 7 -8 26 0
2 3 5 7 -8 -28 0
1 2 4 5 6 7 -16 0
2 3 4 6 7 -25 0
1 2 4 5 -7 9 18 0
1 2 4 6 -7 9 -27 0
8 9 -28 0
1 2 4 5 -7 -9 -18 0
1 2 3 4 -7 -9 22 0
1 3 4 6 -7 -9 27 0
1 2 4 -7 8 17 0
1 2 3 -7 8 -21 0
1 3 4 6 -7 8 26 0
-7 -8 9 28 0
3 -8 -9 -28 0
1 2 4 -7 -8 -17 0
1 2 3 -7 -8 21 0
1 2 3 4 6 -7 -8 -26 0
1 2 4 5 6 -7 16 0
1 2 4 5 6 -7 19 0
2 4 5 6 -7 -20 0
1 2 3 4 6 -7 25 0
1 3 4 5 6 -15 0
1 4 5 6 -24 0
1 3 4 5 -6 9 18 0
7 8 9 -27 0
1 3 4 5 -6 -9 -18 0
1 2 3 4 -6 -9 22 0
7 8 -9 27 0
7 8 -9 28 0
1 3 4 -6 8 17 0
1 2 3 -6 8 -21 0
4 5 -6 8 -26 0
7 8 -29 0
1 3 4 -6 -8 -17 0
1 2 3 -6 -8 21 0
1 4 5 -6 -8 26 0
1 3 -6 7 16 0
1 2 -6 7 -20 0
1 4 5 -6 7 25 0
-6 -7 8 9 27 0
-6 -7 8 -9 -27 0
-6 -7 -9 29 0
-6 -7 8 -28 0
2 -7 -8 9 -27 0
3 -7 -8 -9 27 0
3 -6 -7 -9 -28 0
1 3 -6 -7 -16 0
1 2 -6 -7 20 0
2 4 5 -6 -7 -25 0
1 3 4 5 -6 15 0
1 3 4 5 -6 -19 0
2 4 5 -6 24 0
2 3 4 5 -14 0
1 2 3 4 5 -23 0
2 3 4 -5 9 -18 0
1 -5 6 9 -19 0
1 2 -5 7 9 -20 0
1 2 3 8 9 -21 0
6 7 9 -28 0
2 3 4 -5 -9 18 0
2 3 4 -5 8 17 0
6 7 8 -26 0
1 2 3 -5 -8 9 21 0
6 7 -8 9 27 0
1 3 6 7 -8 -9 -21 0
6 7 -8 -9 -27 0
2 3 4 -5 -8 -17 0
6 7 -8 26 0
6 7 -8 -28 0
2 3 -5 7 16 0
2 3 4 -5 7 -25 0
1 2 -5 -7 9 20 0
2 4 6 -7 -9 -20 0
2 3 -5 -7 -16 0
1 2 3 4 -5 -7 25 0
2 -5 6 15 0
1 2 3 4 -5 6 24 0
1 -5 -6 9 19 0
-5 -6 7 9 -27 0
1 3 4 -6 -9 -19 0
-5 -6 7 -9 27 0
-5 -6 7 8 26 0
-5 -6 -8 9 28 0
-5 -6 7 -8 -26 0
1 2 -6 -7 8 -26 0
2 -5 -6 -8 9 -27 0
3 -5 -6 -8 -9 27 0
3 -6 -7 -8 26 0
2 -5 -6 -15 0
1 2 3 4 -5 -6 -24 0
2 3 4 -5 14 0
1 2 3 4 -5 23 0
1 2 3 4 -13 0
-4 5 8 9 -18 0
1 -4 6 8 9 -19 0
1 2 3 7 8 9 -20 0
5 6 8 9 -27 0
-4 5 8 -9 18 0
1 5 6 -9 19 0
2 5 6 7 -9 20 0
1 3 5 6 7 8 -9 21 0
5 6 8 -9 27 0
5 6 8 -9 28 0
1 2 3 -4 8 -17 0
1 2 3 -4 5 6 7 8 22 0
1 2 3 -4 5 6 7 8 23 0
1 2 3 -4 6 7 8 -24 0
5 6 8 -29 0
1 2 3 -4 9 22 0
1 2 3 -4 5 9 23 0
1 2 3 -4 6 9 -24 0
1 2 3 -4 -8 -9 -22 0
1 2 3 5 -8 -9 -23 0
-4 5 6 -8 -9 24 0
1 2 3 -4 -8 17 0
1 2 3 -4 7 16 0
5 6 7 -25 0
1 2 -4 -7 8 9 20 0
5 6 -7 9 -27 0
2 5 6 -7 -9 -20 0
1 2 3 -4 -7 -9 -22 0
1 2 3 5 -7 -9 -23 0
-4 5 6 -7 -9 24 0
5 6 -7 -9 27 0
5 6 -7 8 26 0
2 5 6 -7 -8 -20 0
5 6 -7 -8 -26 0
1 2 3 -4 -7 -16 0
5 6 -7 25 0
1 2 -4 6 15 0
1 -4 -6 8 9 19 0
1 2 3 -4 -6 9 24 0
2 3 5 -6 7 9 25 0
2 3 5 -6 8 9 -26 0
1 5 -6 -9 -19 0
1 2 3 -4 -6 -9 -22 0
1 2 3 5 -6 -9 -23 0
-4 5 -6 -9 -24 0
-4 5 7 -9 -25 0
-4 -6 7 8 -9 26 0
-4 -6 7 -9 27 0
2 3 5 -6 -8 9 26 0
-4 -6 7 -8 -9 -26 0
1 3 5 -6 -8 -19 0
2 3 -4 5 -6 7 -8 27 0
1 2 3 5 -6 -7 9 -25 0
-4 5 -7 -9 25 0
3 -4 -6 -8 -9 27 0
1 2 -4 -6 -15 0
1 -4 5 14 0
-4 -5 8 9 18 0
1 2 3 -4 -5 9 -23 0
-4 -5 8 -9 -18 0
1 2 3 -4 -5 -9 -22 0
1 2 3 -5 -9 23 0
1 -4 -5 6 8 -19 0
1 2 -4 -5 7 8 -20 0
1 2 3 -4 -5 8 -21 0
-4 -5 6 8 -26 0
2 3 -5 -8 9 -18 0
2 3 -5 -8 -9 18 0
1 2 3 6 -8 -9 19 0
2 3 6 7 -8 -9 20 0
1 2 3 -4 -5 6 7 -9 -21 0
-4 -5 6 -8 26 0
-4 -5 6 7 25 0
-4 -5 -7 8 9 27 0
-4 -5 -7 8 -9 -27 0
-4 -5 -7 -9 29 0
1 2 -4 -5 -7 8 20 0
-4 -5 -7 8 -28 0
2 3 6 -7 -8 -9 -20 0
3 -4 -5 -7 -9 -28 0
-4 -5 6 -7 -25 0
3 -4 -5 6 -24 0
1 -4 -5 -6 8 19 0
1 3 -6 -8 -9 -19 0
3 -5 -6 7 -25 0
1 2 -4 -5 -7 8 -26 0
3 -4 -5 -7 -8 26 0
3 -5 -6 -7 25 0
3 -4 -5 -6 24 0
1 -4 -5 -14 0
1 2 3 -4 13 0
1 2 3 -12 0
-3 5 7 8 9 -18 0
1 -3 6 7 8 9 -19 0
1 2 -3 4 5 6 7 9 21 0
1 2 -3 4 5 6 7 9 22 0
1 2 -3 5 6 7 9 -23 0
4 5 7 9 -28 0
-3 5 7 8 -9 18 0
1 -3 5 6 7 8 -9 -21 0
1 2 -3 4 6 7 -9 -22 0
2 -3 4 5 -9 23 0
-3 4 7 8 -17 0
4 5 -8 9 18 0
4 5 7 -8 9 27 0
4 5 -8 -9 -18 0
-3 4 7 -8 17 0
1 4 5 6 -8 19 0
2 4 5 6 7 -8 20 0
1 -3 4 5 6 7 -8 21 0
4 5 7 -8 -28 0
1 2 -3 7 -16 0
1 2 -3 4 8 9 22 0
1 2 -3 5 8 9 -23 0
1 2 -3 4 8 -9 -22 0
1 2 -3 -7 8 21 0
1 2 4 -7 -8 9 -22 0
1 2 4 -7 -8 -9 22 0
4 -8 -9 -28 0
1 2 -3 -7 -8 -21 0
2 -3 4 5 -7 -8 23 0
1 2 -3 -7 16 0
1 2 -3 6 15 0
1 -3 -6 7 8 9 19 0
1 2 -3 -6 8 21 0
1 2 4 -6 -8 9 -22 0
1 2 4 -6 -8 -9 22 0
1 4 5 -6 -8 -19 0
1 2 -3 -6 -8 -21 0
2 -3 4 5 -6 -8 23 0
4 -7 -8 -9 27 0
4 -6 -7 -9 -28 0
1 4 5 -6 -7 -19 0
1 2 -3 -6 -15 0
1 -3 5 14 0
-3 -5 7 8 9 18 0
1 2 -3 -5 8 9 23 0
1 2 4 -5 6 8 9 24 0
1 2 4 -5 7 8 9 -25 0
-3 -5 7 8 -9 -18 0
2 -3 4 -5 -9 -23 0
1 -3 4 6 -9 -24 0
-3 -5 6 7 -9 25 0
1 -3 -5 6 7 8 -19 0
1 2 -3 -5 7 8 -20 0
1 2 -3 -5 8 21 0
4 -5 -8 9 -18 0
1 2 -3 -5 -8 9 -21 0
4 -5 -8 -9 18 0
1 4 6 -8 -9 19 0
2 4 6 7 -8 -9 20 0
1 2 -3 4 -5 6 7 -9 21 0
1 2 -3 4 -5 6 7 -8 -22 0
2 -3 4 -5 -8 -23 0
1 -3 4 6 -8 -24 0
-3 -5 6 7 -8 25 0
-3 -5 6 -8 26 0
2 4 -5 -7 9 -18 0
1 2 4 -5 -7 8 9 25 0
1 2 -3 4 -5 6 -7 9 26 0
2 4 -5 -7 -9 18 0
1 2 4 6 -7 -9 19 0
-3 -5 6 -7 -9 -25 0
-3 -5 6 8 -9 -26 0
-3 -5 -7 -9 29 0
1 2 -3 4 -5 6 -7 8 -27 0
-3 -5 -7 8 -28 0
1 2 4 -5 -8 9 -22 0
-3 4 -5 -7 -9 -28 0
-3 -5 6 -7 -8 -25 0
1 2 4 -5 -6 8 9 -24 0
2 -3 4 -6 -9 24 0
1 -3 -5 -6 7 8 19 0
1 4 -6 -8 -9 -19 0
2 -3 4 -6 -8 24 0
4 -5 -6 7 -25 0
1 4 -6 -7 -9 -19 0
-3 -5 -7 8 -9 -27 0
1 4 -5 -6 -8 -9 27 0
-3 4 -5 -7 -8 26 0
4 -5 -6 -7 25 0
1 -3 -5 -14 0
-3 4 13 0
-3 -4 5 7 9 -18 0
1 -3 -4 6 7 9 -19 0
1 2 -3 -4 7 9 -20 0
1 2 -3 8 9 21 0
1 2 -3 -4 8 9 -22 0
-3 -4 5 7 -9 18 0
1 2 -3 -4 5 6 7 -9 22 0
-3 -4 7 8 17 0
1 2 -3 -4 -8 9 -21 0
1 -3 5 6 7 -8 -9 21 0
-3 -4 7 -8 -17 0
1 2 -3 -4 5 6 7 -8 22 0
1 2 -3 -4 5 6 7 -23 0
-3 -4 5 7 -25 0
1 2 -3 -4 8 -9 22 0
1 2 -4 -7 8 -17 0
1 2 -3 -4 5 8 -23 0
1 2 5 -7 -8 9 18 0
1 2 -4 -8 9 22 0
2 -3 -4 5 9 -23 0
1 2 5 -7 -8 -9 -18 0
1 2 -4 -7 -8 -9 -22 0
2 -3 5 -7 -8 -9 23 0
5 -8 -9 -28 0
1 2 -4 -7 -8 17 0
1 2 5 6 -7 -8 19 0
-3 -4 5 -7 25 0
-3 -4 5 6 24 0
1 -3 -4 -6 7 9 19 0
-3 -4 -6 7 9 -27 0
-3 -4 -6 7 8 26 0
-3 -4 -6 -8 9 28 0
1 2 -4 -6 -8 -9 -22 0
2 -3 5 -6 -8 -9 23 0
-3 -4 -6 7 -8 -26 0
2 -3 -4 -6 -8 9 -27 0
1 -4 5 -6 -8 -9 27 0
5 -6 -7 -9 -28 0
1 5 -6 -7 -8 -19 0
5 -6 -7 -8 26 0
-3 -4 5 -6 -24 0
-3 -4 -5 7 9 18 0
-3 -4 -5 7 -9 -18 0
1 2 -3 -4 -5 8 23 0
1 2 -4 -5 6 8 -24 0
2 -3 -4 -5 9 23 0
2 -4 -5 6 9 -24 0
1 2 -4 -5 -8 -9 -22 0
2 -3 -5 -8 -9 -23 0
-3 -4 6 -8 -9 24 0
1 2 -3 -4 -5 -8 -21 0
1 -3 -4 -5 6 7 -19 0
1 2 -3 -4 -5 7 -20 0
2 -5 -7 -8 9 -18 0
2 -5 -7 -8 -9 18 0
1 2 6 -7 -8 -9 19 0
1 2 -3 -4 -5 6 -8 -9 -20 0
6 -7 -8 -9 27 0
-3 -5 6 -7 -9 -28 0
1 2 -4 -5 -6 8 24 0
1 2 -3 -4 -6 7 8 -25 0
1 2 -4 -5 -6 9 24 0
1 -3 -4 -6 7 9 -25 0
-3 -4 -6 -8 -9 -24 0
-3 -4 -5 7 -8 -9 25 0
7 -8 -9 -28 0
1 -3 -4 -5 -6 7 19 0
-3 -4 -5 -6 -7 -9 -27 0
1 2 -3 -4 -6 -7 8 25 0
2 -3 -4 -6 -7 9 25 0
2 -3 -5 -7 -8 9 26 0
1 2 -6 -7 -8 -9 -19 0
-3 -4 -5 -7 -8 -9 -25 0
1 2 -3 -4 -5 -6 -7 -9 -26 0
2 -3 -4 -5 -6 -7 -8 -27 0
-3 -4 -5 -6 -7 -8 28 0
-3 -4 -13 0
1 2 -3 12 0
1 2 -11 0
-2 5 6 7 8 9 -18 0
1 -2 3 4 5 6 8 9 20 0
1 -2 4 5 6 8 9 -22 0
3 4 6 8 9 -27 0
-2 5 6 7 8 -9 18 0
-2 5 6 7 -9 -20 0
1 -2 4 6 8 -9 22 0
-2 4 6 7 8 -17 0
1 -2 3 4 5 6 8 21 0
1 3 4 5 6 8 -23 0
1 -2 3 4 -8 9 22 0
3 4 5 9 -23 0
-2 3 4 -8 -9 -22 0
-2 3 4 5 -8 -9 23 0
-2 4 6 7 -8 17 0
-2 4 5 6 7 -8 -20 0
1 -2 3 5 6 -8 -21 0
-2 3 6 7 -16 0
3 4 5 -7 9 18 0
3 4 6 -7 9 -27 0
3 4 5 -7 -9 -18 0
3 4 -7 8 17 0
3 4 -7 -8 -17 0
-2 3 6 -7 16 0
1 3 4 5 6 -7 19 0
-2 3 4 5 6 -7 20 0
1 -2 6 -15 0
1 -2 4 7 8 9 -22 0
1 -2 4 7 8 -9 22 0
1 -2 3 7 8 21 0
1 3 4 5 7 8 -23 0
1 -2 3 7 -8 -21 0
1 -2 -6 7 20 0
1 -2 3 4 -6 -7 9 22 0
-2 3 4 -6 -7 -9 -22 0
-2 3 4 5 -6 -7 -9 23 0
1 3 -6 -7 8 -21 0
3 -7 -8 9 -27 0
1 3 -6 -7 -8 21 0
1 -2 -6 -7 -20 0
3 4 5 -6 -7 -25 0
1 -2 -6 15 0
3 4 5 -6 24 0
1 -2 5 14 0
-2 -5 6 7 8 9 18 0
-2 -5 6 7 8 -9 -18 0
1 -2 -5 6 7 8 -19 0
1 -2 -5 7 8 20 0
1 3 4 -5 6 8 23 0
1 3 4 -5 6 8 24 0
1 3 4 -5 7 8 -25 0
1 -2 -5 7 9 20 0
1 3 4 -5 9 23 0
3 4 -5 6 9 24 0
3 4 -5 7 9 -25 0
-2 4 6 7 -8 -9 -20 0
-2 3 4 -5 -8 -9 -23 0
1 -2 4 6 -8 -9 -24 0
-2 -5 6 7 -8 -9 25 0
3 4 -5 -7 9 -18 0
1 -2 -5 -7 9 -20 0
1 3 -5 -7 8 9 -21 0
3 4 -5 -7 -9 18 0
1 3 4 6 -7 -9 19 0
-2 3 4 6 -7 -9 20 0
1 -2 3 4 6 8 -9 21 0
1 -2 3 4 -5 6 -7 8 22 0
1 3 4 -5 -7 8 25 0
1 3 -5 -7 -8 9 21 0
1 -2 3 4 -5 -7 9 22 0
3 4 -5 -7 9 25 0
3 4 6 -7 -8 9 -26 0
1 -2 3 6 -8 -9 -21 0
-2 -5 6 -7 -8 -9 -25 0
1 -2 3 4 -5 6 -7 -9 26 0
3 4 -5 -6 9 -18 0
3 4 -5 -6 -9 18 0
1 3 4 -5 7 8 23 0
1 3 4 -5 -6 7 8 -24 0
1 3 4 -5 -6 9 -24 0
-2 3 4 -6 -8 -9 24 0
-2 3 4 -5 -6 -7 -9 -23 0
-2 3 4 -6 -7 -9 24 0
3 -6 -7 8 -26 0
3 -5 -6 -8 9 -27 0
1 -2 -5 -14 0
-2 4 13 0
-2 -4 5 6 7 9 -18 0
1 -2 -4 6 7 9 -19 0
1 -2 -4 7 9 20 0
1 -2 -4 7 8 9 22 0
1 3 -4 5 7 8 9 23 0
1 3 -4 6 7 8 9 -24 0
-2 -4 5 6 7 -9 18 0
1 -2 -4 5 6 8 -9 -22 0
-2 3 -4 5 -9 -23 0
-2 -4 5 6 -9 24 0
-2 -4 6 7 8 17 0
1 -2 3 -4 -8 9 -22 0
-2 3 -4 -8 -9 22 0
-2 -4 6 7 -8 -17 0
-2 3 -4 5 -8 -23 0
-2 -4 5 6 -8 24 0
1 -2 -4 -7 8 9 -20 0
1 -2 3 -4 5 6 -7 9 -21 0
-2 5 6 -7 -9 20 0
1 -2 3 5 6 8 -9 21 0
3 -4 -7 8 -17 0
1 -2 3 -4 5 6 -7 8 -22 0
3 5 -7 -8 9 18 0
1 -2 3 -4 -7 9 -22 0
3 5 -7 -8 -9 -18 0
3 -4 -7 -8 17 0
1 3 5 6 -7 -8 19 0
-2 3 5 6 -7 -8 20 0
-2 3 -4 5 -7 -23 0
-2 -4 5 6 -7 24 0
-2 -4 5 -7 25 0
1 3 -4 -6 7 8 9 24 0
1 -2 3 -4 5 -6 8 9 25 0
1 -2 3 -4 5 -6 7 9 -26 0
-2 -4 -6 7 9 -27 0
1 -2 -4 7 8 -9 -22 0
1 3 -4 -6 8 -17 0
1 3 5 -6 -8 9 18 0
-2 -4 -6 -8 9 28 0
1 3 5 -6 -8 -9 -18 0
1 3 -4 -6 -8 17 0
-2 -4 5 -6 -8 -24 0
-2 -4 5 7 -8 -25 0
-2 -4 -6 7 -8 -26 0
-2 3 -4 -6 -7 -9 22 0
-2 3 -4 -6 -8 9 -27 0
-2 -4 5 -6 -7 -24 0
-2 -4 -5 6 7 9 18 0
1 3 -4 -5 7 8 9 -23 0
-2 -4 -5 6 7 -9 -18 0
3 -4 -5 -9 23 0
-2 3 -4 -5 -8 23 0
1 -2 -4 -5 6 7 -19 0
1 -2 -4 -5 7 20 0
-2 3 -4 -5 -7 -9 22 0
1 -2 -4 -5 -7 8 -20 0
1 3 -4 -5 -7 8 -21 0
3 -5 -7 -8 9 -18 0
3 -5 -7 -8 -9 18 0
1 3 6 -7 -8 -9 19 0
1 -2 3 -4 -5 6 -8 -9 20 0
1 -2 3 -4 -5 6 -7 -9 -21 0
-2 3 -4 -5 -7 23 0
3 -5 -6 -8 9 -18 0
3 -5 -6 -8 -9 18 0
3 -4 -5 -7 8 -26 0
-2 3 -4 -6 -7 25 0
-2 -4 -13 0
-2 3 12 0
-2 -3 5 6 8 9 -18 0
1 -2 -3 6 8 9 -19 0
1 -2 -3 7 8 9 20 0
1 -2 -3 4 5 6 9 -22 0
-2 -3 5 6 8 -9 18 0
1 -2 -3 4 6 -9 22 0
-2 -3 4 6 8 -17 0
1 -2 -3 7 8 -21 0
-2 -3 4 6 -8 17 0
1 -2 -3 4 5 6 -8 21 0
-2 -3 6 7 16 0
1 -2 -3 -7 8 9 -20 0
1 -2 -3 4 5 6 -7 9 21 0
1 -2 -3 5 6 8 -9 -21 0
-2 4 5 6 -7 -8 20 0
-2 -3 6 -7 -16 0
1 -2 -3 4 5 6 23 0
1 -2 -3 4 6 -24 0
1 -2 -3 4 7 9 -22 0
1 -2 -3 4 7 -9 22 0
1 -2 -3 7 -8 21 0
1 -3 -6 7 -16 0
1 -2 -3 4 5 7 23 0
1 -2 -3 4 -6 7 24 0
1 4 5 -6 -7 9 18 0
1 -2 -3 4 8 9 -22 0
1 4 5 -6 -7 -9 -18 0
-2 -3 4 8 -9 22 0
1 4 -6 -7 8 17 0
1 -3 -6 -7 8 21 0
-2 -3 4 5 8 23 0
-2 -3 4 -6 8 24 0
4 5 -6 -7 8 -25 0
1 -2 4 -6 -7 -8 9 22 0
-2 -3 4 5 9 23 0
-2 -3 4 -6 9 24 0
4 5 -6 -7 9 -25 0
4 -7 -8 9 -27 0
-2 4 -6 -7 -8 -9 -22 0
-2 -3 4 5 -6 -7 -8 -9 -23 0
1 -2 -3 4 5 -7 -8 -9 -24 0
1 -2 -3 4 5 -6 -8 -9 25 0
1 4 -6 -7 -8 -17 0
1 -3 -6 -7 -8 -21 0
1 -3 -6 -7 16 0
-2 -3 -5 6 8 9 18 0
-2 -3 -5 6 8 -9 -18 0
1 -2 -3 -5 6 8 -19 0
-2 -3 -5 6 8 -26 0
-2 -3 -5 6 7 25 0
-2 -3 -5 -7 8 9 27 0
1 -2 -3 -5 -7 8 -20 0
1 -3 -5 -7 8 21 0
1 -3 -5 -7 -8 9 -21 0
-2 4 6 -7 -8 -9 20 0
1 -2 -3 4 -5 6 -7 -9 21 0
1 -2 -3 4 -5 6 -7 -8 22 0
-2 -3 -5 6 -7 -25 0
1 -2 -3 4 -5 6 -23 0
1 -2 -3 4 -5 7 -23 0
4 -5 -6 -7 9 -18 0
4 -5 -6 -7 -9 18 0
-2 -3 4 -5 8 -23 0
-2 -3 4 -5 -7 8 -26 0
1 -2 4 -5 -7 -8 9 22 0
-2 -3 4 -5 9 -23 0
4 -5 -6 -8 9 -27 0
-2 -3 4 -5 -6 -7 -8 -9 23 0
-2 -3 4 -5 -6 24 0
-2 -3 -4 5 6 9 -18 0
1 -2 -3 -4 6 9 -19 0
1 -2 -3 -4 7 9 22 0
1 -3 -4 5 7 9 -23 0
-2 -3 -4 5 6 -9 18 0
1 -2 -3 -4 5 6 -9 -22 0
-2 -3 -4 5 -9 23 0
-2 -3 -4 6 8 17 0
-2 -3 -4 6 -8 -17 0
1 -2 -3 -4 -7 9 -20 0
1 -3 -7 8 9 21 0
1 -2 -3 -4 8 9 22 0
1 -3 -4 5 8 9 -23 0
1 -3 -4 -7 -8 9 -21 0
1 -2 -3 5 6 -8 -9 21 0
1 -2 -3 -4 5 6 -7 -8 -22 0
-2 -3 -4 5 -7 -8 23 0
1 -2 -3 -4 7 -9 -22 0
1 -2 -3 -4 8 -9 -22 0
1 -4 -6 -7 8 -17 0
5 -6 -7 8 -26 0
1 5 -6 -7 -8 9 18 0
1 -2 -4 -7 -8 9 -22 0
-2 -4 5 -6 -8 9 -27 0
1 5 -6 -7 -8 -9 -18 0
-2 -4 -6 -7 -8 -9 22 0
1 -4 -6 -7 -8 17 0
-2 -3 -4 -5 6 9 18 0
1 -3 -4 -5 7 9 23 0
1 -2 -3 -5 6 7 9 -24 0
-2 -3 -4 -5 6 -9 -18 0
-2 -3 -4 -5 -9 -23 0
-2 -3 -4 6 -9 24 0
1 -3 -4 -5 8 9 23 0
-2 -3 -5 6 8 9 -24 0
6 -7 -8 9 -27 0
-2 -4 -5 -7 -8 -9 22 0
1 -3 -4 -5 -7 -8 -21 0
-2 -3 -4 -5 -7 -8 -23 0
-2 -3 -4 6 -7 -8 24 0
1 -2 -3 -4 -5 -7 -20 0
1 -2 -3 -4 -5 6 -19 0
1 -2 -3 -5 -6 7 9 24 0
-2 -3 -4 -6 -9 -24 0
-2 -3 -4 -5 7 -9 25 0
-2 -3 -4 -5 -6 -8 -26 0
1 -2 -3 -5 -6 8 9 24 0
1 -2 -4 -6 -7 8 9 25 0
1 -2 -3 -4 -5 -6 -7 9 -26 0
-2 -3 -4 -5 -6 -7 9 27 0
-2 -3 -4 -5 -7 -9 -25 0
-2 -3 -4 -5 -6 8 -9 26 0
1 -5 -6 -7 -8 9 -18 0
1 -5 -6 -7 -8 -9 18 0
1 -2 -3 -4 -5 -7 -8 -9 -19 0
-2 -3 -4 -6 -7 -8 -24 0
-2 -3 -4 -5 -7 -8 -25 0
-2 -3 -12 0
1 -2 11 0
1 -10 0
-1 2 3 4 5 7 8 9 19 0
2 3 4 5 7 9 -22 0
-1 2 3 4 6 -9 -19 0
-1 2 3 4 7 -9 22 0
2 3 4 6 8 -9 27 0
2 3 4 6 8 -9 28 0
-1 4 5 6 7 8 -17 0
-1 3 4 5 7 8 -21 0
2 3 4 6 8 -29 0
2 4 5 7 -8 -9 -27 0
-1 4 5 6 7 -8 17 0
-1 4 5 6 -8 -19 0
-1 3 5 7 -8 21 0
2 4 5 7 -8 26 0
-1 3 5 6 7 -16 0
-1 2 3 4 5 7 20 0
2 3 4 5 7 -23 0
2 3 4 8 9 -22 0
-1 2 3 4 8 -9 22 0
2 3 4 6 -7 -9 27 0
-1 2 3 -7 8 21 0
2 3 4 5 8 -23 0
2 3 4 6 -7 8 26 0
-1 2 3 4 -7 -8 9 22 0
-1 3 4 -7 -8 -9 -22 0
-1 2 4 5 -7 -8 -9 23 0
-1 2 3 -7 -8 -21 0
-1 3 5 6 -7 16 0
-1 3 4 5 6 -7 -19 0
-1 2 4 5 -7 -20 0
-1 2 5 6 -15 0
2 4 5 6 -24 0
2 3 4 5 -6 9 18 0
2 3 4 5 -6 -9 -18 0
2 3 4 -6 8 17 0
2 3 4 -6 -8 -17 0
2 4 5 -6 -8 26 0
2 3 -6 7 16 0
2 4 5 -6 7 25 0
2 3 -6 -7 -16 0
-1 2 5 -6 15 0
-1 2 3 4 5 -6 19 0
-1 5 -14 0
-1 -5 6 9 19 0
2 3 4 6 7 9 -22 0
-1 3 6 7 8 -21 0
-1 3 6 7 -8 21 0
-1 2 6 7 20 0
2 3 4 -5 7 23 0
2 3 4 -5 6 7 24 0
2 3 4 -5 8 23 0
2 3 4 -5 6 8 24 0
2 3 4 -5 -7 8 25 0
2 3 4 -5 9 23 0
-1 2 4 -5 -7 -8 -9 -23 0
-1 2 4 6 -7 -8 -9 -24 0
-1 2 3 4 -5 6 -8 -9 -25 0
-1 2 3 4 -5 6 -7 -9 26 0
-1 2 6 -7 -20 0
-1 -5 -6 9 -19 0
2 -5 -6 7 9 -20 0
-1 2 3 -5 -6 8 9 21 0
-1 3 4 -6 -9 19 0
-1 2 3 4 7 -9 20 0
-1 3 4 7 8 -9 -21 0
-1 2 3 -5 -6 -8 9 -21 0
-1 3 7 -8 -9 21 0
-1 2 3 4 -5 -6 7 -8 22 0
2 3 4 -5 -6 7 -24 0
2 -5 -6 -7 9 20 0
-1 2 4 -7 -9 -20 0
2 3 4 -5 -6 8 -24 0
-1 2 3 4 -5 -6 -8 9 22 0
2 3 4 -5 -6 9 -24 0
-1 2 4 -6 -7 -8 -9 24 0
-1 -5 14 0
-1 4 13 0
-1 -4 5 6 7 9 -18 0
-1 -4 6 7 9 19 0
2 3 -4 5 7 9 22 0
2 3 -4 5 7 9 23 0
2 3 -4 6 7 9 -24 0
-1 -4 5 6 7 -9 18 0
-1 5 6 -9 -19 0
-1 2 3 -4 7 -9 -22 0
-1 3 -4 5 -9 -23 0
-1 -4 5 6 -9 24 0
-1 -4 5 6 7 8 17 0
-1 -4 5 6 7 -8 -17 0
-1 -4 6 8 9 19 0
2 3 -4 8 9 22 0
2 3 -4 5 8 9 23 0
2 3 -4 6 8 9 -24 0
-1 2 3 -4 8 -9 -22 0
-1 2 3 -4 -7 -8 9 -22 0
-1 3 -4 -7 -8 -9 22 0
-1 3 5 6 -7 -8 -19 0
-1 3 -4 5 -7 -8 -23 0
-1 -4 5 6 -7 -8 24 0
-1 -4 -6 8 9 -19 0
2 -4 -6 7 8 9 -20 0
-1 2 3 -4 5 -6 7 9 21 0
2 3 -4 -6 7 9 24 0
-1 5 -6 -9 19 0
-1 2 5 7 -9 20 0
-1 3 5 7 8 -9 -21 0
2 3 -4 -6 8 -17 0
2 3 5 -6 -8 9 18 0
2 3 5 -6 -8 -9 -18 0
2 3 -4 -6 -8 17 0
-1 2 3 5 -6 -8 19 0
-1 2 3 5 7 -8 20 0
2 -4 -6 -7 8 9 20 0
2 3 -4 -6 8 9 24 0
2 3 5 -6 -7 8 9 -25 0
-1 2 5 -7 -9 -20 0
-1 2 5 -7 -8 -20 0
-1 -4 5 -6 -7 -8 -24 0
-1 -4 5 -7 -8 25 0
2 3 -4 6 7 9 22 0
2 3 -4 -5 6 7 9 -23 0
2 3 -4 -5 8 -17 0
-1 -4 -5 6 8 19 0
-1 2 3 6 -8 -9 -19 0
2 3 -4 -5 -8 17 0
2 3 -4 -5 8 9 -23 0
-1 3 -4 -5 -7 -8 23 0
-1 -4 -5 -6 8 -19 0
2 -4 -5 -6 7 8 -20 0
-1 2 3 -4 -5 -6 8 21 0
-1 3 -6 -8 -9 19 0
-1 2 3 7 -8 -9 20 0
-1 2 3 -4 -5 -6 7 -9 21 0
-1 2 3 -4 -5 -6 7 -8 -22 0
-1 3 -4 -5 -6 -8 23 0
2 -4 -5 -6 -7 8 20 0
-1 2 3 -4 -5 -6 -8 9 -22 0
-1 2 3 -7 -8 -9 -20 0
-1 -4 -13 0
-1 3 12 0
-1 -3 5 6 8 9 -18 0
-1 -3 6 8 9 19 0
2 -3 4 6 7 8 9 22 0
2 -3 5 6 7 8 9 -23 0
-1 -3 5 6 8 -9 18 0
2 -3 4 5 7 8 -9 -22 0
-1 -3 4 5 6 8 -17 0
-1 -3 6 7 8 21 0
-1 2 -3 4 -8 9 -22 0
-1 2 -3 4 -8 -9 22 0
-1 -3 4 5 6 -8 17 0
-1 -3 4 5 7 -8 -21 0
-1 2 -3 4 5 -8 23 0
-1 -3 5 6 7 16 0
-1 2 -3 4 -7 9 -22 0
-1 2 -3 4 -7 -9 22 0
-1 2 -3 -7 8 -21 0
-1 2 -3 -7 -8 21 0
-1 -3 5 6 -7 -16 0
-1 2 -3 4 5 -7 23 0
-1 -3 -6 7 8 9 -19 0
-1 2 -3 4 5 -6 8 9 -20 0
-1 2 -3 4 5 -6 7 9 -21 0
-1 -3 5 7 8 -9 21 0
-1 2 -3 4 5 -6 7 8 -22 0
-1 2 -3 4 -6 9 -22 0
-1 4 5 -6 -8 19 0
-1 2 4 5 7 -8 20 0
2 -3 -6 7 -16 0
2 4 5 -6 -7 9 18 0
2 4 5 -6 -7 -9 -18 0
2 4 -6 -7 8 17 0
2 4 -6 -7 -8 -17 0
2 -3 -6 -7 16 0
-1 2 4 5 -6 -7 19 0
-1 2 -3 4 5 -6 23 0
-1 2 -3 4 -6 24 0
2 -3 -5 6 7 8 9 23 0
-1 2 -3 4 -5 7 8 9 24 0
-1 2 -3 4 -5 6 8 9 -25 0
2 -3 4 6 7 8 -9 -22 0
2 -3 4 6 -9 -24 0
-1 -3 -5 6 7 8 19 0
-1 -3 -5 6 8 -26 0
-1 4 6 -8 -9 -19 0
-1 -3 6 7 -8 -21 0
2 -3 4 6 -8 -24 0
2 -3 -5 7 -16 0
-1 -3 -5 -7 8 9 27 0
-1 2 4 6 -7 -9 -19 0
2 4 -5 -7 8 17 0
2 4 -5 -7 -8 -17 0
2 -3 -5 -7 16 0
-1 2 -3 4 -5 -7 -23 0
-1 2 -3 4 6 -7 -24 0
-1 -3 -5 6 -7 -25 0
-1 2 -3 4 -5 -6 -9 22 0
-1 -3 -5 -6 7 8 -19 0
2 -3 -5 -6 7 8 -20 0
-1 2 -3 -5 -6 8 -21 0
-1 2 -3 -5 -6 -8 9 21 0
-1 4 -6 -8 -9 19 0
-1 2 4 7 -8 -9 20 0
-1 2 -3 4 -5 -6 7 -9 -21 0
-1 4 -6 -7 -9 19 0
-1 -3 4 -5 -7 8 -26 0
2 4 -5 -6 -8 -9 27 0
-1 2 -3 4 -5 -6 -23 0
-1 -3 -4 5 6 9 -18 0
-1 -3 -4 6 9 19 0
2 -3 -4 6 7 8 9 -22 0
-1 -3 -4 5 6 -9 18 0
2 -3 -4 5 7 8 -9 22 0
-1 -3 -4 5 6 8 17 0
2 -3 -4 5 7 8 -23 0
2 -3 -4 -8 9 22 0
-1 2 -3 -4 -8 -9 -22 0
-1 2 -3 5 -8 -9 23 0
-1 -3 -4 5 6 -8 -17 0
-1 2 -3 -4 -7 9 22 0
-1 2 -3 -4 -7 -9 -22 0
-1 2 -3 5 -7 -9 23 0
-1 -3 -4 -6 7 9 -19 0
2 -3 -4 -6 7 9 -20 0
-1 2 -3 -6 8 9 -21 0
-1 2 -3 -4 5 -6 7 8 22 0
-1 2 -3 -4 -6 -8 9 21 0
-1 2 -3 -4 -6 9 22 0
-1 -3 5 7 -8 -9 -21 0
2 -4 -6 -7 8 -17 0
2 5 -6 -7 -8 9 18 0
2 5 -6 -7 -8 -9 -18 0
2 -4 5 -6 -8 -9 27 0
2 -4 -6 -7 -8 17 0
-1 2 5 -6 -7 -8 19 0
2 -3 -4 6 7 8 -9 22 0
2 -3 -4 -5 6 7 8 23 0
2 -4 -5 6 7 8 -24 0
-1 -3 -4 -5 6 7 19 0
-1 2 -3 -5 -7 -9 -23 0
-1 -3 -4 6 -7 -9 24 0
2 -4 -5 -7 8 -17 0
-1 2 6 -7 -8 -9 -19 0
2 -4 -5 -7 -8 17 0
-1 2 -3 -5 -6 9 24 0
2 -3 -4 -6 7 9 -25 0
-1 2 -3 -4 -5 -6 -9 -22 0
-1 2 -3 -5 -6 -9 -23 0
-1 -3 -4 -6 -9 -24 0
-1 -3 -4 -5 7 -9 25 0
-1 2 -3 -4 -5 -6 -8 21 0
-1 -3 -4 -5 -6 7 -19 0
2 -3 -4 -5 -6 7 -20 0
-1 2 -3 -5 -7 8 9 -26 0
-1 -3 -4 -5 -7 -9 -25 0
-1 -3 -4 -5 -6 8 -9 26 0
-1 2 -6 -7 -8 -9 19 0
-1 2 -3 -4 -5 -6 -8 -9 -20 0
-1 -3 -4 -5 -6 -8 -9 -26 0
-1 -3 -12 0
-1 2 11 0
-1 -2 5 7 8 9 -18 0
-1 -2 6 7 8 9 19 0
-1 -2 3 4 5 9 22 0
-1 -2 3 5 9 -23 0
-1 -2 5 7 8 -9 18 0
-1 -2 3 4 -9 -22 0
-1 -2 3 4 5 -9 23 0
-1 -2 4 5 7 8 -17 0
-1 -2 3 4 5 8 -21 0
3 4 5 7 -8 -9 -27 0
-1 -2 4 5 7 -8 17 0
-1 -2 3 5 -8 21 0
3 4 5 7 -8 26 0
-1 -2 3 5 7 -16 0
-1 -2 6 7 -20 0
-1 -2 3 5 -7 16 0
-1 -2 3 4 5 -7 20 0
-1 -2 5 6 15 0
3 4 5 6 -24 0
-1 -2 -6 7 8 9 -19 0
-1 -2 3 4 5 -6 8 9 20 0
-1 -2 3 4 7 -9 -20 0
-1 -2 4 5 7 -8 -20 0
3 4 5 -6 -8 26 0
3 4 5 -6 7 25 0
-1 3 4 5 -6 -7 19 0
-1 -2 5 -6 -15 0
-1 -2 3 4 6 9 22 0
-1 -2 3 -5 6 9 23 0
-1 -2 3 4 -5 -9 -23 0
-1 -2 3 4 6 -9 -24 0
-1 -2 -5 6 7 -9 25 0
-1 -2 -5 6 7 8 19 0
-1 -2 3 6 8 -21 0
-1 -2 3 6 -8 21 0
3 4 6 -7 8 9 26 0
-1 3 4 6 -7 -9 -19 0
-1 -2 -5 6 -7 -9 -25 0
-1 -2 -5 6 8 -9 -26 0
-1 -2 -5 -7 -9 29 0
-1 -2 3 4 -5 6 -7 8 -27 0
-1 -2 -5 -7 8 -28 0
-1 -2 -5 6 -8 -9 26 0
-1 -2 3 -5 -7 -9 -28 0
-1 -2 6 -7 20 0
-2 -5 6 -15 0
-2 -5 -6 7 9 20 0
-1 -2 3 4 7 9 22 0
-1 -2 3 -5 7 9 23 0
3 4 -5 -6 7 9 -24 0
-1 -2 3 4 -6 -9 24 0
3 4 -5 -6 8 17 0
-1 -2 3 7 8 -21 0
3 4 -5 -6 -8 -17 0
-1 -2 3 7 -8 21 0
3 -5 -6 7 16 0
-2 -5 -6 -7 9 -20 0
-1 3 -5 -6 -7 8 9 21 0
-1 -2 3 4 8 9 22 0
-1 -2 3 -5 8 9 23 0
3 4 -5 -6 8 9 -24 0
-1 -2 4 -7 -9 20 0
-1 -2 3 4 8 -9 -21 0
-1 -2 -5 -7 8 -9 -27 0
-1 3 -5 -6 -7 -8 9 -21 0
-1 -2 3 -8 -9 21 0
-1 -2 3 4 -5 -6 -7 -8 -22 0
-1 -2 3 4 -5 -6 -7 -8 -23 0
-1 -2 3 4 -6 -7 -8 24 0
3 -5 -6 -7 -16 0
-2 -5 -6 15 0
-1 -2 -4 5 7 9 -18 0
-1 -2 3 -4 5 9 -22 0
-1 -2 -4 5 7 -9 18 0
-1 -2 3 -4 -9 22 0
-1 -2 -4 5 7 8 17 0
-1 -2 -4 5 7 -8 -17 0
-1 -2 -4 5 7 -25 0
-1 -2 -4 5 6 24 0
-1 -2 -4 -6 7 9 -19 0
-2 -4 -6 7 9 20 0
-1 -2 5 7 -9 -20 0
-1 -2 -4 -6 7 8 26 0
-2 -4 -6 -7 8 9 -20 0
-1 -2 3 -4 5 -6 -7 9 21 0
-1 -2 5 -7 -9 20 0
-1 -2 3 5 8 -9 -21 0
-1 3 5 -6 -7 -8 19 0
-1 -2 3 5 -7 -8 20 0
-1 -2 -4 5 -6 -24 0
-1 -2 3 -4 5 -23 0
-1 -2 3 -4 6 9 -22 0
-1 -2 -4 -5 6 7 19 0
-1 3 6 -7 -8 -9 -19 0
-1 -2 3 -4 7 9 -22 0
3 -4 -5 -6 8 -17 0
-2 -4 -5 -6 7 8 20 0
-1 -2 3 7 -8 -9 -20 0
3 -4 -5 -6 -8 17 0
-1 -2 3 -4 -6 7 -25 0
-1 -2 3 -4 8 9 -22 0
-2 -4 -5 -6 -7 8 -20 0
-1 3 -4 -5 -6 -7 8 21 0
-1 -2 3 -7 -8 -9 20 0
-1 -2 3 -4 -5 -6 -7 -9 21 0
-1 -2 3 -4 -5 -6 -7 -8 22 0
-1 -2 3 -4 -5 23 0
-1 -2 -3 5 8 9 -18 0
-2 -3 4 6 8 9 -22 0
-1 -2 -3 5 8 -9 18 0
-1 -2 -3 4 5 8 -17 0
-1 -2 -3 6 8 21 0
-2 -3 4 6 8 -24 0
-1 -2 -3 4 -8 9 22 0
-2 -3 4 6 9 -24 0
-1 -2 4 -8 -9 -22 0
-1 -2 -3 4 5 -8 -9 -23 0
-1 -2 -3 5 6 -8 -9 24 0
-1 -2 -3 4 5 -8 17 0
-1 -2 -3 4 5 -8 -21 0
-1 -2 -3 5 7 16 0
-1 -2 -3 5 -7 -16 0
-1 -2 -3 -6 8 9 -19 0
-2 -3 -6 7 8 9 20 0
-2 -3 4 7 8 9 -22 0
-1 -2 -3 -6 7 -9 27 0
-1 -2 -3 7 8 21 0
-1 -3 4 -6 8 24 0
4 5 -6 7 8 25 0
-1 -3 4 -6 9 24 0
4 5 -6 7 9 25 0
4 5 -6 -8 9 26 0
-1 -2 -3 5 -6 -8 -9 -24 0
-1 -2 -3 5 7 -8 -9 -25 0
-1 -2 -3 4 5 -6 7 -9 -26 0
-1 -2 -3 4 5 -6 7 -8 27 0
-2 -3 -6 -7 8 9 -20 0
-1 -2 -3 4 5 -6 -7 9 -21 0
-1 -2 -3 4 8 -9 21 0
-1 -2 -3 4 -6 -7 8 22 0
-1 -2 -3 4 -6 -7 9 22 0
-1 -2 -3 5 -7 -8 -9 25 0
-1 -2 -3 4 -6 -8 -9 27 0
-1 -2 4 5 -7 -8 20 0
-1 -2 4 -6 -7 -8 26 0
-1 -2 -3 -5 6 8 19 0
-1 -2 -3 4 -5 -8 -9 23 0
-1 -2 -3 6 -8 -21 0
-1 -2 4 -5 -7 -9 -28 0
-2 -3 4 -5 6 -24 0
-2 -3 -5 -6 7 8 20 0
-1 -2 4 7 -8 -9 -20 0
-1 -2 -3 7 -8 -21 0
-3 -5 -6 7 -16 0
-1 -3 -6 -7 8 9 -21 0
4 -5 -6 -7 8 17 0
-1 -3 -5 -6 -7 -8 9 21 0
-1 -2 -3 -8 -9 -21 0
4 -5 -6 -7 -8 -17 0
-3 -5 -6 -7 16 0
-1 -3 4 -5 -6 24 0
-1 -2 -3 -4 5 9 -18 0
-2 -3 -4 6 8 9 22 0
-1 -2 -4 5 6 8 9 -23 0
-1 -2 -3 -4 5 -9 18 0
-2 -3 -4 5 8 -9 -22 0
-1 -2 -3 -4 5 8 17 0
-1 -2 -3 -4 -8 9 -22 0
-1 -2 -4 -8 -9 22 0
-1 -2 -3 -4 5 -8 -17 0
-1 -2 -3 -4 5 -8 23 0
-1 -2 -3 -4 -6 9 -19 0
-2 -3 -4 7 8 9 22 0
-1 -2 -4 5 7 8 9 -23 0
-2 -3 -4 -6 -7 9 -20 0
-1 -2 -3 5 8 -9 21 0
-1 -2 -3 -4 5 -6 -7 8 -22 0
-1 -3 -4 -6 -7 -8 9 21 0
-1 -2 -3 -4 -6 -7 9 -22 0
-1 -2 -3 5 -6 -8 -9 27 0
-1 -2 -3 -4 5 -6 -7 23 0
-1 -2 -4 -5 6 8 9 23 0
-2 -3 -4 6 8 -9 -22 0
-1 -2 -3 -4 -5 -8 -23 0
-1 -2 -3 -4 6 -8 24 0
-1 -2 -5 6 -7 -9 -28 0
-1 -2 -3 -4 -5 -7 -25 0
-1 -2 -3 -4 -5 6 19 0
-1 -2 -4 -5 7 8 9 23 0
-1 -3 -5 -6 7 8 9 24 0
-1 -2 -3 -4 -5 -6 8 9 -25 0
-2 -3 -4 7 8 -9 -22 0
-1 -2 -3 -4 -5 -6 8 26 0
-1 -2 -3 -4 -6 -8 -24 0
-1 -2 -3 -4 -5 7 -8 25 0
-2 -3 -4 -5 -6 7 20 0
-1 -2 -4 -5 -6 -7 -9 22 0
-4 -5 -6 -7 8 -17 0
-1 -3 -4 -5 -6 -7 8 -21 0
-1 -2 -3 -4 -6 -7 -8 9 -18 0
-1 -2 -3 -4 -6 -7 -8 -9 18 0
-1 -2 -3 -4 -5 -7 -8 -9 19 0
-1 -2 -3 -4 -5 -6 -8 -9 20 0
-1 -2 -3 -4 -5 -6 -7 -9 -21 0
-4 -5 -6 -7 -8 17 0
-1 -2 -3 -4 -5 -6 -7 -23 0
-1 -2 -3 -4 -6 -7 -24 0
-1 -2 -11 0
-1 10 0
